without_loop_formulas/r_berkshire-regional-transportation-authority_20120707_0319_gr_bz2_lp_lp_paths_tw3.lp.cnf
p cnf 785 2006
c 86 select(1,16)
c 87 nots(1,16)
c 88 select(1,24)
c 89 nots(1,24)
c 90 select(1,18)
c 91 nots(1,18)
c 92 reach(18)
c 93 reach(24)
c 94 reach(16)
c 95 select(16,1)
c 96 nots(16,1)
c 97 select(24,1)
c 98 nots(24,1)
c 99 select(24,6)
c 100 nots(24,6)
c 101 select(24,8)
c 102 nots(24,8)
c 103 select(24,11)
c 104 nots(24,11)
c 105 select(24,14)
c 106 nots(24,14)
c 107 select(24,16)
c 108 nots(24,16)
c 109 select(24,20)
c 110 nots(24,20)
c 111 select(18,1)
c 112 nots(18,1)
c 113 select(18,2)
c 114 nots(18,2)
c 115 select(16,24)
c 116 nots(16,24)
c 117 select(16,28)
c 118 nots(16,28)
c 119 select(16,49)
c 120 nots(16,49)
c 121 select(24,33)
c 122 nots(24,33)
c 123 select(24,38)
c 124 nots(24,38)
c 125 select(24,44)
c 126 nots(24,44)
c 127 select(24,45)
c 128 nots(24,45)
c 129 select(24,53)
c 130 nots(24,53)
c 131 select(24,27)
c 132 nots(24,27)
c 133 reach(27)
c 134 reach(53)
c 135 reach(45)
c 136 reach(44)
c 137 reach(38)
c 138 reach(33)
c 139 reach(49)
c 140 reach(28)
c 141 reach(2)
c 142 reach(20)
c 143 reach(14)
c 144 reach(11)
c 145 reach(8)
c 146 reach(6)
c 147 select(8,7)
c 148 nots(8,7)
c 149 select(28,16)
c 150 nots(28,16)
c 151 select(49,12)
c 152 nots(49,12)
c 153 select(49,16)
c 154 nots(49,16)
c 155 select(33,19)
c 156 nots(33,19)
c 157 select(33,23)
c 158 nots(33,23)
c 159 select(33,24)
c 160 nots(33,24)
c 161 select(38,24)
c 162 nots(38,24)
c 163 select(38,34)
c 164 nots(38,34)
c 165 select(44,8)
c 166 nots(44,8)
c 167 select(44,10)
c 168 nots(44,10)
c 169 select(44,20)
c 170 nots(44,20)
c 171 select(44,24)
c 172 nots(44,24)
c 173 select(44,35)
c 174 nots(44,35)
c 175 select(45,24)
c 176 nots(45,24)
c 177 select(53,15)
c 178 nots(53,15)
c 179 select(53,21)
c 180 nots(53,21)
c 181 select(53,24)
c 182 nots(53,24)
c 183 select(53,30)
c 184 nots(53,30)
c 185 select(27,24)
c 186 nots(27,24)
c 187 select(6,24)
c 188 nots(6,24)
c 189 select(6,26)
c 190 nots(6,26)
c 191 select(6,61)
c 192 nots(6,61)
c 193 select(8,24)
c 194 nots(8,24)
c 195 select(8,10)
c 196 nots(8,10)
c 197 select(8,44)
c 198 nots(8,44)
c 199 select(11,24)
c 200 nots(11,24)
c 201 select(11,23)
c 202 nots(11,23)
c 203 select(14,32)
c 204 nots(14,32)
c 205 select(14,24)
c 206 nots(14,24)
c 207 select(20,24)
c 208 nots(20,24)
c 209 select(20,44)
c 210 nots(20,44)
c 211 select(2,18)
c 212 nots(2,18)
c 213 select(2,12)
c 214 nots(2,12)
c 215 select(28,43)
c 216 nots(28,43)
c 217 select(44,54)
c 218 nots(44,54)
c 219 select(44,58)
c 220 nots(44,58)
c 221 select(45,47)
c 222 nots(45,47)
c 223 select(27,37)
c 224 nots(27,37)
c 225 reach(37)
c 226 reach(47)
c 227 reach(58)
c 228 reach(54)
c 229 reach(43)
c 230 reach(12)
c 231 reach(32)
c 232 reach(23)
c 233 reach(10)
c 234 reach(61)
c 235 reach(26)
c 236 reach(30)
c 237 reach(21)
c 238 reach(15)
c 239 reach(35)
c 240 reach(34)
c 241 reach(19)
c 242 reach(7)
c 243 select(19,7)
c 244 nots(19,7)
c 245 select(34,5)
c 246 nots(34,5)
c 247 select(35,4)
c 248 nots(35,4)
c 249 select(21,12)
c 250 nots(21,12)
c 251 select(21,15)
c 252 nots(21,15)
c 253 select(30,21)
c 254 nots(30,21)
c 255 select(26,6)
c 256 nots(26,6)
c 257 select(61,6)
c 258 nots(61,6)
c 259 select(61,26)
c 260 nots(61,26)
c 261 select(10,8)
c 262 nots(10,8)
c 263 select(23,11)
c 264 nots(23,11)
c 265 select(32,14)
c 266 nots(32,14)
c 267 select(12,2)
c 268 nots(12,2)
c 269 select(43,28)
c 270 nots(43,28)
c 271 select(43,29)
c 272 nots(43,29)
c 273 select(54,4)
c 274 nots(54,4)
c 275 select(54,9)
c 276 nots(54,9)
c 277 select(54,40)
c 278 nots(54,40)
c 279 select(54,41)
c 280 nots(54,41)
c 281 select(54,44)
c 282 nots(54,44)
c 283 select(58,4)
c 284 nots(58,4)
c 285 select(58,44)
c 286 nots(58,44)
c 287 select(58,54)
c 288 nots(58,54)
c 289 select(47,13)
c 290 nots(47,13)
c 291 select(47,45)
c 292 nots(47,45)
c 293 select(37,12)
c 294 nots(37,12)
c 295 select(37,27)
c 296 nots(37,27)
c 297 select(7,8)
c 298 nots(7,8)
c 299 select(7,19)
c 300 nots(7,19)
c 301 select(19,33)
c 302 nots(19,33)
c 303 select(34,38)
c 304 nots(34,38)
c 305 select(35,44)
c 306 nots(35,44)
c 307 select(15,53)
c 308 nots(15,53)
c 309 select(15,21)
c 310 nots(15,21)
c 311 select(21,53)
c 312 nots(21,53)
c 313 select(21,30)
c 314 nots(21,30)
c 315 select(30,53)
c 316 nots(30,53)
c 317 select(26,61)
c 318 nots(26,61)
c 319 select(10,44)
c 320 nots(10,44)
c 321 select(23,33)
c 322 nots(23,33)
c 323 select(12,37)
c 324 nots(12,37)
c 325 select(12,42)
c 326 nots(12,42)
c 327 select(12,49)
c 328 nots(12,49)
c 329 select(12,21)
c 330 nots(12,21)
c 331 select(12,55)
c 332 nots(12,55)
c 333 select(54,58)
c 334 nots(54,58)
c 335 select(37,42)
c 336 nots(37,42)
c 337 reach(42)
c 338 reach(55)
c 339 reach(13)
c 340 reach(4)
c 341 reach(41)
c 342 reach(40)
c 343 reach(9)
c 344 reach(29)
c 345 reach(5)
c 346 select(40,9)
c 347 nots(40,9)
c 348 select(41,9)
c 349 nots(41,9)
c 350 select(41,40)
c 351 nots(41,40)
c 352 select(55,12)
c 353 nots(55,12)
c 354 select(55,52)
c 355 nots(55,52)
c 356 select(42,12)
c 357 nots(42,12)
c 358 select(42,36)
c 359 nots(42,36)
c 360 select(42,37)
c 361 nots(42,37)
c 362 select(5,34)
c 363 nots(5,34)
c 364 select(29,48)
c 365 nots(29,48)
c 366 select(29,43)
c 367 nots(29,43)
c 368 select(9,40)
c 369 nots(9,40)
c 370 select(9,41)
c 371 nots(9,41)
c 372 select(9,54)
c 373 nots(9,54)
c 374 select(40,54)
c 375 nots(40,54)
c 376 select(40,41)
c 377 nots(40,41)
c 378 select(41,54)
c 379 nots(41,54)
c 380 select(4,58)
c 381 nots(4,58)
c 382 select(4,35)
c 383 nots(4,35)
c 384 select(4,54)
c 385 nots(4,54)
c 386 select(13,47)
c 387 nots(13,47)
c 388 select(42,56)
c 389 nots(42,56)
c 390 reach(56)
c 391 reach(48)
c 392 reach(36)
c 393 reach(52)
c 394 select(52,22)
c 395 nots(52,22)
c 396 select(36,17)
c 397 nots(36,17)
c 398 select(48,29)
c 399 nots(48,29)
c 400 select(56,42)
c 401 nots(56,42)
c 402 select(56,51)
c 403 nots(56,51)
c 404 select(52,55)
c 405 nots(52,55)
c 406 select(36,42)
c 407 nots(36,42)
c 408 select(48,51)
c 409 nots(48,51)
c 410 reach(51)
c 411 reach(17)
c 412 reach(22)
c 413 select(51,48)
c 414 nots(51,48)
c 415 select(22,52)
c 416 nots(22,52)
c 417 select(22,62)
c 418 nots(22,62)
c 419 select(17,36)
c 420 nots(17,36)
c 421 select(51,56)
c 422 nots(51,56)
c 423 reach(62)
c 424 select(62,3)
c 425 nots(62,3)
c 426 select(62,22)
c 427 nots(62,22)
c 428 reach(3)
c 429 select(3,25)
c 430 nots(3,25)
c 431 select(3,46)
c 432 nots(3,46)
c 433 select(3,62)
c 434 nots(3,62)
c 435 reach(46)
c 436 reach(25)
c 437 select(25,3)
c 438 nots(25,3)
c 439 select(46,3)
c 440 nots(46,3)
c 441 select(25,57)
c 442 nots(25,57)
c 443 select(25,39)
c 444 nots(25,39)
c 445 select(46,57)
c 446 nots(46,57)
c 447 reach(57)
c 448 reach(39)
c 449 select(39,25)
c 450 nots(39,25)
c 451 select(57,25)
c 452 nots(57,25)
c 453 select(57,31)
c 454 nots(57,31)
c 455 select(57,39)
c 456 nots(57,39)
c 457 select(57,46)
c 458 nots(57,46)
c 459 select(57,50)
c 460 nots(57,50)
c 461 select(39,57)
c 462 nots(39,57)
c 463 reach(50)
c 464 reach(31)
c 465 select(31,57)
c 466 nots(31,57)
c 467 select(31,59)
c 468 nots(31,59)
c 469 select(50,57)
c 470 nots(50,57)
c 471 reach(59)
c 472 select(59,31)
c 473 nots(59,31)
c 474 select(59,60)
c 475 nots(59,60)
c 476 reach(60)
c 477 select(60,59)
c 478 nots(60,59)
c 542 edge(1,16)
c 543 edge(1,24)
c 544 edge(1,18)
c 545 edge(2,18)
c 546 edge(2,12)
c 547 edge(3,25)
c 548 edge(3,46)
c 549 edge(3,62)
c 550 edge(4,58)
c 551 edge(4,35)
c 552 edge(4,54)
c 553 edge(5,34)
c 554 edge(6,24)
c 555 edge(6,26)
c 556 edge(6,61)
c 557 edge(7,8)
c 558 edge(7,19)
c 559 edge(8,24)
c 560 edge(8,10)
c 561 edge(8,44)
c 562 edge(9,40)
c 563 edge(9,41)
c 564 edge(9,54)
c 565 edge(10,44)
c 566 edge(11,24)
c 567 edge(11,23)
c 568 edge(12,37)
c 569 edge(12,42)
c 570 edge(12,49)
c 571 edge(12,21)
c 572 edge(12,55)
c 573 edge(13,47)
c 574 edge(14,32)
c 575 edge(14,24)
c 576 edge(15,53)
c 577 edge(15,21)
c 578 edge(16,24)
c 579 edge(16,28)
c 580 edge(16,49)
c 581 edge(17,36)
c 582 edge(19,33)
c 583 edge(20,24)
c 584 edge(20,44)
c 585 edge(21,53)
c 586 edge(21,30)
c 587 edge(22,52)
c 588 edge(22,62)
c 589 edge(23,33)
c 590 edge(24,33)
c 591 edge(24,38)
c 592 edge(24,44)
c 593 edge(24,45)
c 594 edge(24,53)
c 595 edge(24,27)
c 596 edge(25,57)
c 597 edge(25,39)
c 598 edge(26,61)
c 599 edge(27,37)
c 600 edge(28,43)
c 601 edge(29,48)
c 602 edge(29,43)
c 603 edge(30,53)
c 604 edge(31,57)
c 605 edge(31,59)
c 606 edge(34,38)
c 607 edge(35,44)
c 608 edge(36,42)
c 609 edge(37,42)
c 610 edge(39,57)
c 611 edge(40,54)
c 612 edge(40,41)
c 613 edge(41,54)
c 614 edge(42,56)
c 615 edge(44,54)
c 616 edge(44,58)
c 617 edge(45,47)
c 618 edge(46,57)
c 619 edge(48,51)
c 620 edge(50,57)
c 621 edge(51,56)
c 622 edge(52,55)
c 623 edge(54,58)
c 624 edge(59,60)
c 625 reach(1)
c 626 goal(62)
86 87 0
-86 -87 0
88 89 0
-88 -89 0
90 91 0
-90 -91 0
627 -90 0
-627 90 0
628 -88 0
-628 88 0
629 -86 0
-629 86 0
95 -94 96 0
-95 94 0
-95 -96 0
97 -93 98 0
-97 93 0
-97 -98 0
99 -93 100 0
-99 93 0
-99 -100 0
101 -93 102 0
-101 93 0
-101 -102 0
103 -93 104 0
-103 93 0
-103 -104 0
105 -93 106 0
-105 93 0
-105 -106 0
107 -93 108 0
-107 93 0
-107 -108 0
109 -93 110 0
-109 93 0
-109 -110 0
111 -92 112 0
-111 92 0
-111 -112 0
113 -92 114 0
-113 92 0
-113 -114 0
115 -94 116 0
-115 94 0
-115 -116 0
117 -94 118 0
-117 94 0
-117 -118 0
119 -94 120 0
-119 94 0
-119 -120 0
121 -93 122 0
-121 93 0
-121 -122 0
123 -93 124 0
-123 93 0
-123 -124 0
125 -93 126 0
-125 93 0
-125 -126 0
127 -93 128 0
-127 93 0
-127 -128 0
129 -93 130 0
-129 93 0
-129 -130 0
131 -93 132 0
-131 93 0
-131 -132 0
630 -131 0
-630 131 0
631 -129 0
-631 129 0
632 -127 0
-632 127 0
633 -125 0
-633 125 0
634 -123 0
-634 123 0
635 -121 0
-635 121 0
636 -119 0
-636 119 0
637 -117 0
-637 117 0
638 -115 0
-638 115 0
639 -113 0
-639 113 0
640 -109 0
-640 109 0
641 -107 0
-641 107 0
642 -105 0
-642 105 0
643 -103 0
-643 103 0
644 -101 0
-644 101 0
645 -99 0
-645 99 0
147 -145 148 0
-147 145 0
-147 -148 0
149 -140 150 0
-149 140 0
-149 -150 0
151 -139 152 0
-151 139 0
-151 -152 0
153 -139 154 0
-153 139 0
-153 -154 0
155 -138 156 0
-155 138 0
-155 -156 0
157 -138 158 0
-157 138 0
-157 -158 0
159 -138 160 0
-159 138 0
-159 -160 0
161 -137 162 0
-161 137 0
-161 -162 0
163 -137 164 0
-163 137 0
-163 -164 0
165 -136 166 0
-165 136 0
-165 -166 0
167 -136 168 0
-167 136 0
-167 -168 0
169 -136 170 0
-169 136 0
-169 -170 0
171 -136 172 0
-171 136 0
-171 -172 0
173 -136 174 0
-173 136 0
-173 -174 0
175 -135 176 0
-175 135 0
-175 -176 0
177 -134 178 0
-177 134 0
-177 -178 0
179 -134 180 0
-179 134 0
-179 -180 0
181 -134 182 0
-181 134 0
-181 -182 0
183 -134 184 0
-183 134 0
-183 -184 0
185 -133 186 0
-185 133 0
-185 -186 0
187 -146 188 0
-187 146 0
-187 -188 0
189 -146 190 0
-189 146 0
-189 -190 0
191 -146 192 0
-191 146 0
-191 -192 0
193 -145 194 0
-193 145 0
-193 -194 0
195 -145 196 0
-195 145 0
-195 -196 0
197 -145 198 0
-197 145 0
-197 -198 0
199 -144 200 0
-199 144 0
-199 -200 0
201 -144 202 0
-201 144 0
-201 -202 0
203 -143 204 0
-203 143 0
-203 -204 0
205 -143 206 0
-205 143 0
-205 -206 0
207 -142 208 0
-207 142 0
-207 -208 0
209 -142 210 0
-209 142 0
-209 -210 0
211 -141 212 0
-211 141 0
-211 -212 0
213 -141 214 0
-213 141 0
-213 -214 0
215 -140 216 0
-215 140 0
-215 -216 0
217 -136 218 0
-217 136 0
-217 -218 0
219 -136 220 0
-219 136 0
-219 -220 0
221 -135 222 0
-221 135 0
-221 -222 0
223 -133 224 0
-223 133 0
-223 -224 0
646 -223 0
-646 223 0
647 -221 0
-647 221 0
648 -219 0
-648 219 0
649 -217 0
-649 217 0
650 -215 0
-650 215 0
651 -213 0
-651 213 0
652 -211 0
-652 211 0
653 -209 0
-653 209 0
654 -207 0
-654 207 0
655 -205 0
-655 205 0
231 -203 0
-231 203 0
656 -201 0
-656 201 0
657 -199 0
-657 199 0
658 -197 0
-658 197 0
659 -195 0
-659 195 0
660 -193 0
-660 193 0
661 -191 0
-661 191 0
662 -189 0
-662 189 0
663 -187 0
-663 187 0
664 -185 0
-664 185 0
665 -183 0
-665 183 0
666 -181 0
-666 181 0
667 -179 0
-667 179 0
668 -177 0
-668 177 0
669 -175 0
-669 175 0
670 -173 0
-670 173 0
671 -171 0
-671 171 0
672 -169 0
-672 169 0
673 -167 0
-673 167 0
674 -165 0
-674 165 0
675 -163 0
-675 163 0
676 -161 0
-676 161 0
677 -159 0
-677 159 0
678 -157 0
-678 157 0
679 -155 0
-679 155 0
680 -153 0
-680 153 0
681 -151 0
-681 151 0
682 -149 0
-682 149 0
683 -147 0
-683 147 0
243 -241 244 0
-243 241 0
-243 -244 0
245 -240 246 0
-245 240 0
-245 -246 0
247 -239 248 0
-247 239 0
-247 -248 0
249 -237 250 0
-249 237 0
-249 -250 0
251 -237 252 0
-251 237 0
-251 -252 0
253 -236 254 0
-253 236 0
-253 -254 0
255 -235 256 0
-255 235 0
-255 -256 0
257 -234 258 0
-257 234 0
-257 -258 0
259 -234 260 0
-259 234 0
-259 -260 0
261 -233 262 0
-261 233 0
-261 -262 0
263 -232 264 0
-263 232 0
-263 -264 0
265 -231 266 0
-265 231 0
-265 -266 0
267 -230 268 0
-267 230 0
-267 -268 0
269 -229 270 0
-269 229 0
-269 -270 0
271 -229 272 0
-271 229 0
-271 -272 0
273 -228 274 0
-273 228 0
-273 -274 0
275 -228 276 0
-275 228 0
-275 -276 0
277 -228 278 0
-277 228 0
-277 -278 0
279 -228 280 0
-279 228 0
-279 -280 0
281 -228 282 0
-281 228 0
-281 -282 0
283 -227 284 0
-283 227 0
-283 -284 0
285 -227 286 0
-285 227 0
-285 -286 0
287 -227 288 0
-287 227 0
-287 -288 0
289 -226 290 0
-289 226 0
-289 -290 0
291 -226 292 0
-291 226 0
-291 -292 0
293 -225 294 0
-293 225 0
-293 -294 0
295 -225 296 0
-295 225 0
-295 -296 0
297 -242 298 0
-297 242 0
-297 -298 0
299 -242 300 0
-299 242 0
-299 -300 0
301 -241 302 0
-301 241 0
-301 -302 0
303 -240 304 0
-303 240 0
-303 -304 0
305 -239 306 0
-305 239 0
-305 -306 0
307 -238 308 0
-307 238 0
-307 -308 0
309 -238 310 0
-309 238 0
-309 -310 0
311 -237 312 0
-311 237 0
-311 -312 0
313 -237 314 0
-313 237 0
-313 -314 0
315 -236 316 0
-315 236 0
-315 -316 0
317 -235 318 0
-317 235 0
-317 -318 0
319 -233 320 0
-319 233 0
-319 -320 0
321 -232 322 0
-321 232 0
-321 -322 0
323 -230 324 0
-323 230 0
-323 -324 0
325 -230 326 0
-325 230 0
-325 -326 0
327 -230 328 0
-327 230 0
-327 -328 0
329 -230 330 0
-329 230 0
-329 -330 0
331 -230 332 0
-331 230 0
-331 -332 0
333 -228 334 0
-333 228 0
-333 -334 0
335 -225 336 0
-335 225 0
-335 -336 0
684 -335 0
-684 335 0
685 -333 0
-685 333 0
686 -331 0
-686 331 0
687 -329 0
-687 329 0
688 -327 0
-688 327 0
689 -325 0
-689 325 0
690 -323 0
-690 323 0
691 -321 0
-691 321 0
692 -319 0
-692 319 0
693 -317 0
-693 317 0
694 -315 0
-694 315 0
695 -313 0
-695 313 0
696 -311 0
-696 311 0
697 -309 0
-697 309 0
698 -307 0
-698 307 0
699 -305 0
-699 305 0
700 -303 0
-700 303 0
701 -301 0
-701 301 0
702 -299 0
-702 299 0
703 -297 0
-703 297 0
704 -295 0
-704 295 0
705 -293 0
-705 293 0
706 -291 0
-706 291 0
339 -289 0
-339 289 0
707 -287 0
-707 287 0
708 -285 0
-708 285 0
709 -283 0
-709 283 0
710 -281 0
-710 281 0
711 -279 0
-711 279 0
712 -277 0
-712 277 0
713 -275 0
-713 275 0
714 -273 0
-714 273 0
715 -271 0
-715 271 0
716 -269 0
-716 269 0
717 -267 0
-717 267 0
718 -265 0
-718 265 0
719 -263 0
-719 263 0
720 -261 0
-720 261 0
721 -259 0
-721 259 0
722 -257 0
-722 257 0
723 -255 0
-723 255 0
724 -253 0
-724 253 0
725 -251 0
-725 251 0
726 -249 0
-726 249 0
727 -247 0
-727 247 0
345 -245 0
-345 245 0
728 -243 0
-728 243 0
346 -342 347 0
-346 342 0
-346 -347 0
348 -341 349 0
-348 341 0
-348 -349 0
350 -341 351 0
-350 341 0
-350 -351 0
352 -338 353 0
-352 338 0
-352 -353 0
354 -338 355 0
-354 338 0
-354 -355 0
356 -337 357 0
-356 337 0
-356 -357 0
358 -337 359 0
-358 337 0
-358 -359 0
360 -337 361 0
-360 337 0
-360 -361 0
362 -345 363 0
-362 345 0
-362 -363 0
364 -344 365 0
-364 344 0
-364 -365 0
366 -344 367 0
-366 344 0
-366 -367 0
368 -343 369 0
-368 343 0
-368 -369 0
370 -343 371 0
-370 343 0
-370 -371 0
372 -343 373 0
-372 343 0
-372 -373 0
374 -342 375 0
-374 342 0
-374 -375 0
376 -342 377 0
-376 342 0
-376 -377 0
378 -341 379 0
-378 341 0
-378 -379 0
380 -340 381 0
-380 340 0
-380 -381 0
382 -340 383 0
-382 340 0
-382 -383 0
384 -340 385 0
-384 340 0
-384 -385 0
386 -339 387 0
-386 339 0
-386 -387 0
388 -337 389 0
-388 337 0
-388 -389 0
729 -388 0
-729 388 0
730 -386 0
-730 386 0
731 -384 0
-731 384 0
732 -382 0
-732 382 0
733 -380 0
-733 380 0
734 -378 0
-734 378 0
735 -376 0
-735 376 0
736 -374 0
-736 374 0
737 -372 0
-737 372 0
738 -370 0
-738 370 0
739 -368 0
-739 368 0
740 -366 0
-740 366 0
741 -364 0
-741 364 0
742 -362 0
-742 362 0
743 -360 0
-743 360 0
744 -358 0
-744 358 0
745 -356 0
-745 356 0
746 -354 0
-746 354 0
747 -352 0
-747 352 0
748 -350 0
-748 350 0
749 -348 0
-749 348 0
750 -346 0
-750 346 0
394 -393 395 0
-394 393 0
-394 -395 0
396 -392 397 0
-396 392 0
-396 -397 0
398 -391 399 0
-398 391 0
-398 -399 0
400 -390 401 0
-400 390 0
-400 -401 0
402 -390 403 0
-402 390 0
-402 -403 0
404 -393 405 0
-404 393 0
-404 -405 0
406 -392 407 0
-406 392 0
-406 -407 0
408 -391 409 0
-408 391 0
-408 -409 0
751 -408 0
-751 408 0
752 -406 0
-752 406 0
753 -404 0
-753 404 0
754 -402 0
-754 402 0
755 -400 0
-755 400 0
756 -398 0
-756 398 0
411 -396 0
-411 396 0
757 -394 0
-757 394 0
413 -410 414 0
-413 410 0
-413 -414 0
415 -412 416 0
-415 412 0
-415 -416 0
417 -412 418 0
-417 412 0
-417 -418 0
419 -411 420 0
-419 411 0
-419 -420 0
421 -410 422 0
-421 410 0
-421 -422 0
758 -421 0
-758 421 0
759 -419 0
-759 419 0
760 -417 0
-760 417 0
761 -415 0
-761 415 0
762 -413 0
-762 413 0
424 -423 425 0
-424 423 0
-424 -425 0
426 -423 427 0
-426 423 0
-426 -427 0
763 -426 0
-763 426 0
764 -424 0
-764 424 0
429 -428 430 0
-429 428 0
-429 -430 0
431 -428 432 0
-431 428 0
-431 -432 0
433 -428 434 0
-433 428 0
-433 -434 0
765 -433 0
-765 433 0
766 -431 0
-766 431 0
767 -429 0
-767 429 0
437 -436 438 0
-437 436 0
-437 -438 0
439 -435 440 0
-439 435 0
-439 -440 0
441 -436 442 0
-441 436 0
-441 -442 0
443 -436 444 0
-443 436 0
-443 -444 0
445 -435 446 0
-445 435 0
-445 -446 0
768 -445 0
-768 445 0
769 -443 0
-769 443 0
770 -441 0
-770 441 0
771 -439 0
-771 439 0
772 -437 0
-772 437 0
449 -448 450 0
-449 448 0
-449 -450 0
451 -447 452 0
-451 447 0
-451 -452 0
453 -447 454 0
-453 447 0
-453 -454 0
455 -447 456 0
-455 447 0
-455 -456 0
457 -447 458 0
-457 447 0
-457 -458 0
459 -447 460 0
-459 447 0
-459 -460 0
461 -448 462 0
-461 448 0
-461 -462 0
773 -461 0
-773 461 0
463 -459 0
-463 459 0
774 -457 0
-774 457 0
775 -455 0
-775 455 0
776 -453 0
-776 453 0
777 -451 0
-777 451 0
778 -449 0
-778 449 0
465 -464 466 0
-465 464 0
-465 -466 0
467 -464 468 0
-467 464 0
-467 -468 0
469 -463 470 0
-469 463 0
-469 -470 0
779 -469 0
-779 469 0
780 -467 0
-780 467 0
781 -465 0
-781 465 0
472 -471 473 0
-472 471 0
-472 -473 0
474 -471 475 0
-474 471 0
-474 -475 0
476 -474 0
-476 474 0
782 -472 0
-782 472 0
477 -476 478 0
-477 476 0
-477 -478 0
783 -477 0
-783 477 0
96 -94 95 0
-96 94 0
-96 -95 0
98 -93 97 0
-98 93 0
-98 -97 0
112 -92 111 0
-112 92 0
-112 -111 0
114 -92 113 0
-114 92 0
-114 -113 0
268 -230 267 0
-268 230 0
-268 -267 0
438 -436 437 0
-438 436 0
-438 -437 0
440 -435 439 0
-440 435 0
-440 -439 0
425 -423 424 0
-425 423 0
-425 -424 0
284 -227 283 0
-284 227 0
-284 -283 0
248 -239 247 0
-248 239 0
-248 -247 0
274 -228 273 0
-274 228 0
-274 -273 0
246 -240 245 0
-246 240 0
-246 -245 0
100 -93 99 0
-100 93 0
-100 -99 0
256 -235 255 0
-256 235 0
-256 -255 0
258 -234 257 0
-258 234 0
-258 -257 0
148 -145 147 0
-148 145 0
-148 -147 0
244 -241 243 0
-244 241 0
-244 -243 0
102 -93 101 0
-102 93 0
-102 -101 0
262 -233 261 0
-262 233 0
-262 -261 0
166 -136 165 0
-166 136 0
-166 -165 0
347 -342 346 0
-347 342 0
-347 -346 0
349 -341 348 0
-349 341 0
-349 -348 0
276 -228 275 0
-276 228 0
-276 -275 0
168 -136 167 0
-168 136 0
-168 -167 0
104 -93 103 0
-104 93 0
-104 -103 0
264 -232 263 0
-264 232 0
-264 -263 0
294 -225 293 0
-294 225 0
-294 -293 0
357 -337 356 0
-357 337 0
-357 -356 0
152 -139 151 0
-152 139 0
-152 -151 0
250 -237 249 0
-250 237 0
-250 -249 0
353 -338 352 0
-353 338 0
-353 -352 0
290 -226 289 0
-290 226 0
-290 -289 0
266 -231 265 0
-266 231 0
-266 -265 0
106 -93 105 0
-106 93 0
-106 -105 0
178 -134 177 0
-178 134 0
-178 -177 0
252 -237 251 0
-252 237 0
-252 -251 0
108 -93 107 0
-108 93 0
-108 -107 0
150 -140 149 0
-150 140 0
-150 -149 0
154 -139 153 0
-154 139 0
-154 -153 0
397 -392 396 0
-397 392 0
-397 -396 0
156 -138 155 0
-156 138 0
-156 -155 0
110 -93 109 0
-110 93 0
-110 -109 0
170 -136 169 0
-170 136 0
-170 -169 0
180 -134 179 0
-180 134 0
-180 -179 0
254 -236 253 0
-254 236 0
-254 -253 0
395 -393 394 0
-395 393 0
-395 -394 0
427 -423 426 0
-427 423 0
-427 -426 0
158 -138 157 0
-158 138 0
-158 -157 0
160 -138 159 0
-160 138 0
-160 -159 0
162 -137 161 0
-162 137 0
-162 -161 0
172 -136 171 0
-172 136 0
-172 -171 0
176 -135 175 0
-176 135 0
-176 -175 0
182 -134 181 0
-182 134 0
-182 -181 0
186 -133 185 0
-186 133 0
-186 -185 0
452 -447 451 0
-452 447 0
-452 -451 0
450 -448 449 0
-450 448 0
-450 -449 0
260 -234 259 0
-260 234 0
-260 -259 0
296 -225 295 0
-296 225 0
-296 -295 0
270 -229 269 0
-270 229 0
-270 -269 0
399 -391 398 0
-399 391 0
-399 -398 0
272 -229 271 0
-272 229 0
-272 -271 0
184 -134 183 0
-184 134 0
-184 -183 0
454 -447 453 0
-454 447 0
-454 -453 0
473 -471 472 0
-473 471 0
-473 -472 0
164 -137 163 0
-164 137 0
-164 -163 0
174 -136 173 0
-174 136 0
-174 -173 0
359 -337 358 0
-359 337 0
-359 -358 0
361 -337 360 0
-361 337 0
-361 -360 0
456 -447 455 0
-456 447 0
-456 -455 0
278 -228 277 0
-278 228 0
-278 -277 0
351 -341 350 0
-351 341 0
-351 -350 0
280 -228 279 0
-280 228 0
-280 -279 0
401 -390 400 0
-401 390 0
-401 -400 0
282 -228 281 0
-282 228 0
-282 -281 0
286 -227 285 0
-286 227 0
-286 -285 0
292 -226 291 0
-292 226 0
-292 -291 0
458 -447 457 0
-458 447 0
-458 -457 0
414 -410 413 0
-414 410 0
-414 -413 0
460 -447 459 0
-460 447 0
-460 -459 0
403 -390 402 0
-403 390 0
-403 -402 0
355 -338 354 0
-355 338 0
-355 -354 0
288 -227 287 0
-288 227 0
-288 -287 0
478 -476 477 0
-478 476 0
-478 -477 0
87 86 0
-87 -86 0
89 88 0
-89 -88 0
91 90 0
-91 -90 0
212 -141 211 0
-212 141 0
-212 -211 0
214 -141 213 0
-214 141 0
-214 -213 0
430 -428 429 0
-430 428 0
-430 -429 0
432 -428 431 0
-432 428 0
-432 -431 0
434 -428 433 0
-434 428 0
-434 -433 0
381 -340 380 0
-381 340 0
-381 -380 0
383 -340 382 0
-383 340 0
-383 -382 0
385 -340 384 0
-385 340 0
-385 -384 0
363 -345 362 0
-363 345 0
-363 -362 0
188 -146 187 0
-188 146 0
-188 -187 0
190 -146 189 0
-190 146 0
-190 -189 0
192 -146 191 0
-192 146 0
-192 -191 0
298 -242 297 0
-298 242 0
-298 -297 0
300 -242 299 0
-300 242 0
-300 -299 0
194 -145 193 0
-194 145 0
-194 -193 0
196 -145 195 0
-196 145 0
-196 -195 0
198 -145 197 0
-198 145 0
-198 -197 0
369 -343 368 0
-369 343 0
-369 -368 0
371 -343 370 0
-371 343 0
-371 -370 0
373 -343 372 0
-373 343 0
-373 -372 0
320 -233 319 0
-320 233 0
-320 -319 0
200 -144 199 0
-200 144 0
-200 -199 0
202 -144 201 0
-202 144 0
-202 -201 0
324 -230 323 0
-324 230 0
-324 -323 0
326 -230 325 0
-326 230 0
-326 -325 0
328 -230 327 0
-328 230 0
-328 -327 0
330 -230 329 0
-330 230 0
-330 -329 0
332 -230 331 0
-332 230 0
-332 -331 0
387 -339 386 0
-387 339 0
-387 -386 0
204 -143 203 0
-204 143 0
-204 -203 0
206 -143 205 0
-206 143 0
-206 -205 0
308 -238 307 0
-308 238 0
-308 -307 0
310 -238 309 0
-310 238 0
-310 -309 0
116 -94 115 0
-116 94 0
-116 -115 0
118 -94 117 0
-118 94 0
-118 -117 0
120 -94 119 0
-120 94 0
-120 -119 0
420 -411 419 0
-420 411 0
-420 -419 0
302 -241 301 0
-302 241 0
-302 -301 0
208 -142 207 0
-208 142 0
-208 -207 0
210 -142 209 0
-210 142 0
-210 -209 0
312 -237 311 0
-312 237 0
-312 -311 0
314 -237 313 0
-314 237 0
-314 -313 0
416 -412 415 0
-416 412 0
-416 -415 0
418 -412 417 0
-418 412 0
-418 -417 0
322 -232 321 0
-322 232 0
-322 -321 0
122 -93 121 0
-122 93 0
-122 -121 0
124 -93 123 0
-124 93 0
-124 -123 0
126 -93 125 0
-126 93 0
-126 -125 0
128 -93 127 0
-128 93 0
-128 -127 0
130 -93 129 0
-130 93 0
-130 -129 0
132 -93 131 0
-132 93 0
-132 -131 0
442 -436 441 0
-442 436 0
-442 -441 0
444 -436 443 0
-444 436 0
-444 -443 0
318 -235 317 0
-318 235 0
-318 -317 0
224 -133 223 0
-224 133 0
-224 -223 0
216 -140 215 0
-216 140 0
-216 -215 0
365 -344 364 0
-365 344 0
-365 -364 0
367 -344 366 0
-367 344 0
-367 -366 0
316 -236 315 0
-316 236 0
-316 -315 0
466 -464 465 0
-466 464 0
-466 -465 0
468 -464 467 0
-468 464 0
-468 -467 0
304 -240 303 0
-304 240 0
-304 -303 0
306 -239 305 0
-306 239 0
-306 -305 0
407 -392 406 0
-407 392 0
-407 -406 0
336 -225 335 0
-336 225 0
-336 -335 0
462 -448 461 0
-462 448 0
-462 -461 0
375 -342 374 0
-375 342 0
-375 -374 0
377 -342 376 0
-377 342 0
-377 -376 0
379 -341 378 0
-379 341 0
-379 -378 0
389 -337 388 0
-389 337 0
-389 -388 0
218 -136 217 0
-218 136 0
-218 -217 0
220 -136 219 0
-220 136 0
-220 -219 0
222 -135 221 0
-222 135 0
-222 -221 0
446 -435 445 0
-446 435 0
-446 -445 0
409 -391 408 0
-409 391 0
-409 -408 0
470 -463 469 0
-470 463 0
-470 -469 0
422 -410 421 0
-422 410 0
-422 -421 0
405 -393 404 0
-405 393 0
-405 -404 0
334 -228 333 0
-334 228 0
-334 -333 0
475 -471 474 0
-475 471 0
-475 -474 0
784 -424 0
-784 424 0
785 -426 0
-785 426 0
423 0
-531 0
-88 -86 0
-88 -90 0
-90 -86 0
-99 -97 -93 0
-101 -97 -93 0
-101 -99 -93 0
-103 -97 -93 0
-103 -99 -93 0
-103 -101 -93 0
-105 -97 -93 0
-105 -99 -93 0
-105 -101 -93 0
-105 -103 -93 0
-107 -97 -93 0
-107 -99 -93 0
-107 -101 -93 0
-107 -103 -93 0
-107 -105 -93 0
-109 -97 -93 0
-109 -99 -93 0
-109 -101 -93 0
-109 -103 -93 0
-109 -105 -93 0
-109 -107 -93 0
-113 -111 -92 0
-115 -95 -94 0
-117 -95 -94 0
-117 -115 -94 0
-119 -95 -94 0
-119 -115 -94 0
-119 -117 -94 0
-121 -97 -93 0
-121 -99 -93 0
-121 -101 -93 0
-121 -103 -93 0
-121 -105 -93 0
-121 -107 -93 0
-121 -109 -93 0
-121 -131 -93 0
-123 -97 -93 0
-123 -99 -93 0
-123 -101 -93 0
-123 -103 -93 0
-123 -105 -93 0
-123 -107 -93 0
-123 -109 -93 0
-123 -121 -93 0
-123 -131 -93 0
-125 -97 -93 0
-125 -99 -93 0
-125 -101 -93 0
-125 -103 -93 0
-125 -105 -93 0
-125 -107 -93 0
-125 -109 -93 0
-125 -121 -93 0
-125 -123 -93 0
-125 -131 -93 0
-127 -97 -93 0
-127 -99 -93 0
-127 -101 -93 0
-127 -103 -93 0
-127 -105 -93 0
-127 -107 -93 0
-127 -109 -93 0
-127 -121 -93 0
-127 -123 -93 0
-127 -125 -93 0
-127 -131 -93 0
-129 -97 -93 0
-129 -99 -93 0
-129 -101 -93 0
-129 -103 -93 0
-129 -105 -93 0
-129 -107 -93 0
-129 -109 -93 0
-129 -121 -93 0
-129 -123 -93 0
-129 -125 -93 0
-129 -127 -93 0
-129 -131 -93 0
-131 -97 -93 0
-131 -99 -93 0
-131 -101 -93 0
-131 -103 -93 0
-131 -105 -93 0
-131 -107 -93 0
-131 -109 -93 0
-153 -151 -139 0
-157 -155 -138 0
-159 -155 -138 0
-159 -157 -138 0
-163 -161 -137 0
-167 -165 -136 0
-169 -165 -136 0
-169 -167 -136 0
-171 -165 -136 0
-171 -167 -136 0
-171 -169 -136 0
-173 -165 -136 0
-173 -167 -136 0
-173 -169 -136 0
-173 -171 -136 0
-179 -177 -134 0
-181 -177 -134 0
-181 -179 -134 0
-183 -177 -134 0
-183 -179 -134 0
-183 -181 -134 0
-189 -187 -146 0
-191 -187 -146 0
-191 -189 -146 0
-193 -147 -145 0
-193 -195 -145 0
-195 -147 -145 0
-197 -147 -145 0
-197 -193 -145 0
-197 -195 -145 0
-199 -201 -144 0
-203 -205 -143 0
-209 -207 -142 0
-211 -213 -141 0
-215 -149 -140 0
-217 -165 -136 0
-217 -167 -136 0
-217 -169 -136 0
-217 -171 -136 0
-217 -173 -136 0
-219 -165 -136 0
-219 -167 -136 0
-219 -169 -136 0
-219 -171 -136 0
-219 -173 -136 0
-219 -217 -136 0
-221 -175 -135 0
-223 -185 -133 0
-251 -249 -237 0
-259 -257 -234 0
-271 -269 -229 0
-275 -273 -228 0
-277 -273 -228 0
-277 -275 -228 0
-279 -273 -228 0
-279 -275 -228 0
-279 -277 -228 0
-281 -273 -228 0
-281 -275 -228 0
-281 -277 -228 0
-281 -279 -228 0
-285 -283 -227 0
-287 -283 -227 0
-287 -285 -227 0
-291 -289 -226 0
-295 -293 -225 0
-299 -297 -242 0
-301 -243 -241 0
-303 -245 -240 0
-305 -247 -239 0
-307 -309 -238 0
-311 -249 -237 0
-311 -251 -237 0
-311 -313 -237 0
-313 -249 -237 0
-313 -251 -237 0
-315 -253 -236 0
-317 -255 -235 0
-319 -261 -233 0
-321 -263 -232 0
-323 -267 -230 0
-323 -329 -230 0
-325 -267 -230 0
-325 -323 -230 0
-325 -329 -230 0
-327 -267 -230 0
-327 -323 -230 0
-327 -325 -230 0
-327 -329 -230 0
-329 -267 -230 0
-331 -267 -230 0
-331 -323 -230 0
-331 -325 -230 0
-331 -327 -230 0
-331 -329 -230 0
-333 -273 -228 0
-333 -275 -228 0
-333 -277 -228 0
-333 -279 -228 0
-333 -281 -228 0
-335 -293 -225 0
-335 -295 -225 0
-350 -348 -341 0
-354 -352 -338 0
-358 -356 -337 0
-360 -356 -337 0
-360 -358 -337 0
-364 -366 -344 0
-370 -368 -343 0
-372 -368 -343 0
-372 -370 -343 0
-374 -346 -342 0
-374 -376 -342 0
-376 -346 -342 0
-378 -348 -341 0
-378 -350 -341 0
-380 -382 -340 0
-380 -384 -340 0
-384 -382 -340 0
-388 -356 -337 0
-388 -358 -337 0
-388 -360 -337 0
-402 -400 -390 0
-404 -394 -393 0
-406 -396 -392 0
-408 -398 -391 0
-417 -415 -412 0
-421 -413 -410 0
-426 -424 -423 0
-431 -429 -428 0
-433 -429 -428 0
-433 -431 -428 0
-441 -437 -436 0
-441 -443 -436 0
-443 -437 -436 0
-445 -439 -435 0
-453 -451 -447 0
-455 -451 -447 0
-455 -453 -447 0
-457 -451 -447 0
-457 -453 -447 0
-457 -455 -447 0
-459 -451 -447 0
-459 -453 -447 0
-459 -455 -447 0
-459 -457 -447 0
-461 -449 -448 0
-467 -465 -464 0
-474 -472 -471 0
542 0
543 0
544 0
545 0
546 0
547 0
548 0
549 0
550 0
551 0
552 0
553 0
554 0
555 0
556 0
557 0
558 0
559 0
560 0
561 0
562 0
563 0
564 0
565 0
566 0
567 0
568 0
569 0
570 0
571 0
572 0
573 0
574 0
575 0
576 0
577 0
578 0
579 0
580 0
581 0
582 0
583 0
584 0
585 0
586 0
587 0
588 0
589 0
590 0
591 0
592 0
593 0
594 0
595 0
596 0
597 0
598 0
599 0
600 0
601 0
602 0
603 0
604 0
605 0
606 0
607 0
608 0
609 0
610 0
611 0
612 0
613 0
614 0
615 0
616 0
617 0
618 0
619 0
620 0
621 0
622 0
623 0
624 0
625 0
626 0
-1 0
-2 0
-3 0
-4 0
-5 0
-6 0
-7 0
-8 0
-9 0
-10 0
-11 0
-12 0
-13 0
-14 0
-15 0
-16 0
-17 0
-18 0
-19 0
-20 0
-21 0
-22 0
-23 0
-24 0
-25 0
-26 0
-27 0
-28 0
-29 0
-30 0
-31 0
-32 0
-33 0
-34 0
-35 0
-36 0
-37 0
-38 0
-39 0
-40 0
-41 0
-42 0
-43 0
-44 0
-45 0
-46 0
-47 0
-48 0
-49 0
-50 0
-51 0
-52 0
-53 0
-54 0
-55 0
-56 0
-57 0
-58 0
-59 0
-60 0
-61 0
-62 0
-63 0
-64 0
-65 0
-66 0
-67 0
-68 0
-69 0
-70 0
-71 0
-72 0
-73 0
-74 0
-75 0
-76 0
-77 0
-78 0
-79 0
-80 0
-81 0
-82 0
-83 0
-84 0
-85 0
-92 627 652 0
92 -627 0
92 -652 0
-93 628 638 654 655 657 660 663 664 666 669 671 676 677 0
93 -628 0
93 -638 0
93 -654 0
93 -655 0
93 -657 0
93 -660 0
93 -663 0
93 -664 0
93 -666 0
93 -669 0
93 -671 0
93 -676 0
93 -677 0
-94 629 641 680 682 0
94 -629 0
94 -641 0
94 -680 0
94 -682 0
-133 630 704 0
133 -630 0
133 -704 0
-134 631 694 696 698 0
134 -631 0
134 -694 0
134 -696 0
134 -698 0
-135 632 706 0
135 -632 0
135 -706 0
-136 633 653 658 692 699 708 710 0
136 -633 0
136 -653 0
136 -658 0
136 -692 0
136 -699 0
136 -708 0
136 -710 0
-137 634 700 0
137 -634 0
137 -700 0
-138 635 691 701 0
138 -635 0
138 -691 0
138 -701 0
-139 636 688 0
139 -636 0
139 -688 0
-140 637 716 0
140 -637 0
140 -716 0
-141 639 717 0
141 -639 0
141 -717 0
-142 640 672 0
142 -640 0
142 -672 0
-143 642 718 0
143 -642 0
143 -718 0
-144 643 719 0
144 -643 0
144 -719 0
-145 644 674 703 720 0
145 -644 0
145 -674 0
145 -703 0
145 -720 0
-146 645 722 723 0
146 -645 0
146 -722 0
146 -723 0
-225 646 690 743 0
225 -646 0
225 -690 0
225 -743 0
-226 647 730 0
226 -647 0
226 -730 0
-227 648 685 733 0
227 -648 0
227 -685 0
227 -733 0
-228 649 707 731 734 736 737 0
228 -649 0
228 -707 0
228 -731 0
228 -734 0
228 -736 0
228 -737 0
-229 650 740 0
229 -650 0
229 -740 0
-230 651 681 705 726 745 747 0
230 -651 0
230 -681 0
230 -705 0
230 -726 0
230 -745 0
230 -747 0
-232 656 678 0
232 -656 0
232 -678 0
-233 659 673 0
233 -659 0
233 -673 0
-234 661 693 0
234 -661 0
234 -693 0
-235 662 721 0
235 -662 0
235 -721 0
-236 665 695 0
236 -665 0
236 -695 0
-237 667 687 697 724 0
237 -667 0
237 -687 0
237 -697 0
237 -724 0
-238 668 725 0
238 -668 0
238 -725 0
-239 670 732 0
239 -670 0
239 -732 0
-240 675 742 0
240 -675 0
240 -742 0
-241 679 702 0
241 -679 0
241 -702 0
-242 683 728 0
242 -683 0
242 -728 0
-337 684 689 752 755 0
337 -684 0
337 -689 0
337 -752 0
337 -755 0
-338 686 753 0
338 -686 0
338 -753 0
-340 709 714 727 0
340 -709 0
340 -714 0
340 -727 0
-341 711 735 738 0
341 -711 0
341 -735 0
341 -738 0
-342 712 739 748 0
342 -712 0
342 -739 0
342 -748 0
-343 713 749 750 0
343 -713 0
343 -749 0
343 -750 0
-344 715 756 0
344 -715 0
344 -756 0
-390 729 758 0
390 -729 0
390 -758 0
-391 741 762 0
391 -741 0
391 -762 0
-392 744 759 0
392 -744 0
392 -759 0
-393 746 761 0
393 -746 0
393 -761 0
-410 751 754 0
410 -751 0
410 -754 0
-412 757 763 0
412 -757 0
412 -763 0
-423 760 765 0
423 -760 0
423 -765 0
-428 764 771 772 0
428 -764 0
428 -771 0
428 -772 0
-435 766 774 0
435 -766 0
435 -774 0
-436 767 777 778 0
436 -767 0
436 -777 0
436 -778 0
-447 768 770 773 779 781 0
447 -768 0
447 -770 0
447 -773 0
447 -779 0
447 -781 0
-448 769 775 0
448 -769 0
448 -775 0
-464 776 782 0
464 -776 0
464 -782 0
-471 780 783 0
471 -780 0
471 -783 0
-479 0
-480 0
-481 0
-482 0
-483 0
-484 0
-485 0
-486 0
-487 0
-488 0
-489 0
-490 0
-491 0
-492 0
-493 0
-494 0
-495 0
-496 0
-497 0
-498 0
-499 0
-500 0
-501 0
-502 0
-503 0
-504 0
-505 0
-506 0
-507 0
-508 0
-509 0
-510 0
-511 0
-512 0
-513 0
-514 0
-515 0
-516 0
-517 0
-518 0
-519 0
-520 0
-521 0
-522 0
-523 0
-524 0
-525 0
-526 0
-527 0
-528 0
-529 0
-530 0
-531 784 785 0
531 -784 0
531 -785 0
-532 0
-533 0
-534 0
-535 0
-536 0
-537 0
-538 0
-539 0
-540 0
-541 0
